db/data/256492215414711287641714815839138747068.z3.out
-------------------
2500.063581333
